
100
24228

883 683
292 92
918 618
1042 842
1035 835
816 516
832 632
570 370
729 529
408 108
883 683
801 601
582 282
579 379
937 737
744 444
1260 960
1272 972
1039 839
292 92
276 76
489 289
562 362
905 705
1027 827
763 563
840 640
774 574
235 35
727 527
414 214
617 417
209 9
856 656
1111 911
269 69
781 581
324 24
552 352
360 160
1061 861
929 729
1097 897
418 218
919 719
900 700
711 511
1117 917
825 625
483 283
918 718
682 482
414 214
918 618
249 49
750 450
757 557
203 3
849 649
289 89
850 650
642 342
330 30
1200 1000
265 65
357 157
706 506
546 246
731 531
675 475
777 577
744 544
495 295
412 212
895 695
629 429
721 521
1116 916
209 9
478 278
864 564
354 54
954 754
702 402
517 317
395 195
1167 967
247 47
1122 822
905 705
1098 898
1002 702
547 347
750 550
1122 922
241 41
1050 850
874 674
397 197
1167 967
